(declare-fun var0 () String)
(assert (RegexIn var0 (RegexConcat (RegexUnion (RegexPlus (Str2Reg "###")) (RegexUnion (Str2Reg "$$$") (Str2Reg "%%%"))) (RegexConcat (RegexUnion (RegexUnion (Str2Reg "ZZZ") (Str2Reg "!")) (RegexStar (Str2Reg "\"\"\""))) (RegexConcat (RegexPlus (RegexStar (Str2Reg "Y"))) (RegexConcat (RegexPlus (RegexUnion (Str2Reg "W") (Str2Reg "X"))) (RegexConcat (RegexStar (RegexUnion (Str2Reg "UU") (Str2Reg "VVV"))) (RegexConcat (RegexStar (RegexUnion (Str2Reg "SSS") (Str2Reg "TT"))) (RegexConcat (RegexUnion (RegexStar (Str2Reg "QQQ")) (RegexPlus (Str2Reg "R"))) (RegexConcat (RegexUnion (RegexStar (Str2Reg "OO")) (RegexStar (Str2Reg "PPP"))) (RegexConcat (RegexStar (RegexStar (Str2Reg "NNN"))) (RegexConcat (RegexPlus (RegexUnion (Str2Reg "L") (Str2Reg "MM"))) (RegexConcat (RegexPlus (RegexPlus (Str2Reg "K"))) (RegexConcat (RegexUnion (RegexStar (Str2Reg "I")) (RegexPlus (Str2Reg "JJ"))) (RegexConcat (RegexUnion (RegexUnion (Str2Reg "E") (Str2Reg "FF")) (RegexUnion (Str2Reg "G") (Str2Reg "HHH"))) (RegexConcat (RegexPlus (RegexStar (Str2Reg "D"))) (RegexConcat (RegexPlus (RegexUnion (Str2Reg "BB") (Str2Reg "CCC"))) (RegexConcat (RegexStar (RegexPlus (Str2Reg "AAA"))) (RegexConcat (RegexPlus (RegexPlus (Str2Reg "zz"))) (RegexConcat (RegexUnion (RegexStar (Str2Reg "xxx")) (RegexStar (Str2Reg "y"))) (RegexConcat (RegexUnion (RegexStar (Str2Reg "uuu")) (RegexUnion (Str2Reg "v") (Str2Reg "ww"))) (RegexConcat (RegexUnion (RegexStar (Str2Reg "s")) (RegexStar (Str2Reg "t"))) (RegexConcat (RegexPlus (RegexStar (Str2Reg "r"))) (RegexConcat (RegexStar (RegexUnion (Str2Reg "ppp") (Str2Reg "q"))) (RegexConcat (RegexUnion (RegexStar (Str2Reg "nnn")) (RegexPlus (Str2Reg "o"))) (RegexConcat (RegexUnion (RegexUnion (Str2Reg "kk") (Str2Reg "lll")) (RegexPlus (Str2Reg "m"))) (RegexConcat (RegexStar (RegexPlus (Str2Reg "j"))) (RegexConcat (RegexStar (RegexPlus (Str2Reg "ii"))) (RegexConcat (RegexUnion (RegexStar (Str2Reg "g")) (RegexStar (Str2Reg "h"))) (RegexConcat (RegexUnion (RegexPlus (Str2Reg "d")) (RegexUnion (Str2Reg "e") (Str2Reg "ff"))) (RegexConcat (RegexPlus (RegexPlus (Str2Reg "ccc"))) (RegexConcat (RegexPlus (RegexStar (Str2Reg "b"))) (RegexConcat (RegexUnion (RegexUnion (Str2Reg "77") (Str2Reg "888")) (RegexUnion (Str2Reg "9") (Str2Reg "aaa"))) (RegexConcat (RegexPlus (RegexStar (Str2Reg "666"))) (RegexConcat (RegexUnion (RegexUnion (Str2Reg "333") (Str2Reg "4")) (RegexPlus (Str2Reg "5"))) (RegexConcat (RegexStar (RegexStar (Str2Reg "2"))) (RegexConcat (RegexStar (RegexStar (Str2Reg "1"))) (RegexPlus (RegexPlus (Str2Reg "000"))))))))))))))))))))))))))))))))))))))))
(assert (not (RegexIn var0 (RegexConcat (RegexPlus (RegexPlus (Str2Reg "##"))) (RegexConcat (RegexUnion (RegexStar (Str2Reg "!!!")) (RegexPlus (Str2Reg "\"\""))) (RegexConcat (RegexPlus (RegexPlus (Str2Reg "ZZZ"))) (RegexConcat (RegexUnion (RegexStar (Str2Reg "XX")) (RegexPlus (Str2Reg "YYY"))) (RegexConcat (RegexUnion (RegexPlus (Str2Reg "V")) (RegexPlus (Str2Reg "WWW"))) (RegexConcat (RegexUnion (RegexUnion (Str2Reg "SSS") (Str2Reg "TT")) (RegexStar (Str2Reg "U"))) (RegexConcat (RegexStar (RegexPlus (Str2Reg "RRR"))) (RegexConcat (RegexUnion (RegexStar (Str2Reg "PP")) (RegexPlus (Str2Reg "QQQ"))) (RegexConcat (RegexUnion (RegexPlus (Str2Reg "N")) (RegexStar (Str2Reg "OOO"))) (RegexConcat (RegexUnion (RegexPlus (Str2Reg "LL")) (RegexPlus (Str2Reg "M"))) (RegexConcat (RegexPlus (RegexPlus (Str2Reg "K"))) (RegexConcat (RegexUnion (RegexPlus (Str2Reg "I")) (RegexPlus (Str2Reg "J"))) (RegexConcat (RegexPlus (RegexUnion (Str2Reg "GGG") (Str2Reg "HHH"))) (RegexConcat (RegexUnion (RegexPlus (Str2Reg "EE")) (RegexPlus (Str2Reg "F"))) (RegexConcat (RegexUnion (RegexStar (Str2Reg "C")) (RegexStar (Str2Reg "DDD"))) (RegexConcat (RegexStar (RegexStar (Str2Reg "B"))) (RegexConcat (RegexUnion (RegexStar (Str2Reg "zz")) (RegexPlus (Str2Reg "AAA"))) (RegexConcat (RegexPlus (RegexStar (Str2Reg "y"))) (RegexConcat (RegexUnion (RegexUnion (Str2Reg "v") (Str2Reg "www")) (RegexPlus (Str2Reg "xx"))) (RegexConcat (RegexStar (RegexStar (Str2Reg "uuu"))) (RegexConcat (RegexStar (RegexUnion (Str2Reg "ss") (Str2Reg "ttt"))) (RegexConcat (RegexPlus (RegexPlus (Str2Reg "rr"))) (RegexConcat (RegexPlus (RegexUnion (Str2Reg "pp") (Str2Reg "qq"))) (RegexConcat (RegexUnion (RegexUnion (Str2Reg "m") (Str2Reg "nnn")) (RegexPlus (Str2Reg "oo"))) (RegexConcat (RegexStar (RegexPlus (Str2Reg "lll"))) (RegexConcat (RegexStar (RegexUnion (Str2Reg "j") (Str2Reg "kk"))) (RegexConcat (RegexStar (RegexStar (Str2Reg "i"))) (RegexConcat (RegexUnion (RegexUnion (Str2Reg "fff") (Str2Reg "gg")) (RegexPlus (Str2Reg "hhh"))) (RegexConcat (RegexPlus (RegexPlus (Str2Reg "e"))) (RegexConcat (RegexPlus (RegexPlus (Str2Reg "dd"))) (RegexConcat (RegexPlus (RegexStar (Str2Reg "cc"))) (RegexConcat (RegexStar (RegexUnion (Str2Reg "aaa") (Str2Reg "bb"))) (RegexConcat (RegexStar (RegexUnion (Str2Reg "88") (Str2Reg "99"))) (RegexConcat (RegexStar (RegexUnion (Str2Reg "666") (Str2Reg "777"))) (RegexConcat (RegexUnion (RegexUnion (Str2Reg "33") (Str2Reg "44")) (RegexStar (Str2Reg "55"))) (RegexUnion (RegexUnion (Str2Reg "000") (Str2Reg "111")) (RegexStar (Str2Reg "222")))))))))))))))))))))))))))))))))))))))))
(check-sat)